N = 6; %nombre d'années dans le futur où on a besoin du plus gros cashdown
LIQUIDE_NOW = 4500;
SALAIRES_FUTURS_IMPOT = [
60000,
102000,
87000,
88700,
90500,
92300
];
DEPENSES = [
36000,
36700,
37500,
38200,
39000,
39750
];